Route #1: 1 8 24 15 56 14 40 1
Route #2: 1 10 52 25 54 9 7 41 28 1
Route #3: 1 13 23 5 27 44 33 43 34 1
Route #4: 1 51 18 58 53 32 2 29 1
Route #5: 1 20 39 11 47 1
Route #6: 1 57 26 42 21 37 30 22 48 1
Route #7: 1 61 12 45 17 49 36 19 35 1
Route #8: 1 59 16 4 31 60 38 1
Route #9: 1 46 50 3 6 55 1
cost 1312
